n_agents = 40;
start = [462,732,680,780,372,230,893,837,522,719,624,430,762,341,807,839,471,601,456,939,260,884,390,919,835,575,516,626,828,26,367,674,944,132,657,965,298,218,162,983];
goal = [455,655,622,817,370,230,780,754,543,840,762,357,841,415,883,709,411,631,332,970,177,634,307,1008,905,531,517,679,831,48,168,803,875,106,604,993,400,110,136,1021];